
Gurobi 9.0.3 (win64, Java) logging started Fri Feb 19 08:14:21 2021


--------------------------------------------
Warning: your license will expire in 13 days
--------------------------------------------

Academic license - for non-commercial use only
